50
1 0 3
2 1 4
4 0 5
4 1 8
4 3 6
5 0 3
5 1 10
5 4 7
6 3 8
7 4 6
7 5 5
8 1 5
8 3 6
8 5 2
8 6 2
8 7 4
9 0 3
9 2 2
9 4 9
9 5 9
9 6 7
9 7 7
9 8 10
10 0 5
10 1 3
10 3 3
10 4 5
10 8 10
10 9 1
11 4 3
11 7 6
11 9 10
11 10 4
12 0 5
12 2 5
12 3 1
12 5 1
12 6 3
12 8 9
12 10 5
12 11 6
13 1 4
13 9 9
13 10 9
13 11 9
14 0 1
14 1 2
14 4 4
14 5 10
14 8 5
14 9 2
14 10 5
14 11 3
14 12 10
15 0 2
15 2 6
15 4 3
15 5 2
15 7 1
15 8 7
15 9 2
15 10 1
15 12 2
16 2 5
16 5 2
16 7 8
16 9 5
16 10 6
16 11 10
16 13 4
17 1 5
17 3 6
17 7 7
17 11 2
17 12 2
17 14 6
17 15 4
18 3 5
18 5 1
18 7 9
18 9 2
18 10 5
18 11 5
18 12 1
18 13 8
18 14 8
18 17 1
19 0 5
19 2 1
19 4 5
19 6 10
19 12 7
19 13 4
19 16 10
20 1 7
20 9 3
20 10 8
20 11 1
20 13 4
20 14 8
20 15 7
20 16 4
20 18 6
20 19 8
21 2 2
21 4 2
21 5 3
21 6 4
21 7 7
21 10 4
21 12 1
21 15 4
21 18 5
21 20 6
22 0 1
22 1 10
22 7 4
22 11 5
22 12 7
22 13 9
22 16 10
22 20 4
22 21 2
23 0 7
23 6 2
23 9 9
23 10 8
23 12 9
23 13 1
23 14 8
23 18 4
23 19 10
23 20 7
24 1 3
24 2 2
24 4 1
24 5 3
24 9 2
24 11 8
24 12 3
24 13 6
24 14 1
24 15 5
24 17 8
24 22 1
24 23 4
25 1 10
25 3 9
25 4 10
25 5 3
25 9 3
25 13 6
25 16 2
25 17 5
25 18 8
25 19 3
25 21 9
25 22 8
25 23 4
25 24 1
26 0 7
26 3 2
26 5 5
26 7 8
26 9 6
26 12 4
26 14 9
26 15 6
26 17 7
26 18 4
26 19 10
26 20 8
26 23 7
26 25 7
27 0 9
27 1 8
27 4 2
27 6 8
27 7 5
27 12 3
27 13 2
27 17 10
27 20 7
27 23 6
27 24 7
27 25 8
27 26 8
28 0 1
28 1 1
28 2 5
28 4 4
28 7 2
28 8 5
28 9 4
28 11 6
28 12 2
28 13 8
28 17 10
28 18 4
28 22 6
28 23 10
28 24 1
28 25 7
28 26 8
29 0 5
29 3 5
29 5 9
29 12 10
29 13 2
29 17 6
29 18 10
29 19 7
29 22 5
29 23 4
29 27 2
29 28 9
30 1 3
30 2 2
30 4 6
30 5 4
30 6 9
30 10 4
30 13 10
30 14 7
30 15 5
30 16 6
30 18 2
30 19 4
30 23 7
30 25 10
30 26 1
30 28 6
31 3 7
31 5 8
31 6 3
31 7 4
31 8 6
31 9 1
31 10 2
31 13 5
31 16 4
31 17 2
31 20 3
31 21 1
31 22 10
31 23 5
31 24 8
31 25 9
31 26 7
31 27 1
32 1 2
32 9 3
32 15 4
32 16 7
32 18 9
32 19 3
32 20 2
32 22 10
32 23 7
32 24 7
32 30 9
33 1 7
33 2 7
33 9 9
33 10 4
33 12 5
33 15 5
33 17 3
33 19 9
33 22 9
33 24 7
33 25 6
33 28 8
33 29 1
33 30 2
33 32 4
34 1 1
34 5 4
34 6 8
34 7 6
34 8 3
34 9 9
34 10 5
34 11 9
34 12 8
34 18 3
34 19 10
34 20 7
34 23 1
34 24 1
34 25 6
34 26 8
34 29 9
34 33 6
35 3 7
35 5 5
35 6 8
35 9 8
35 13 1
35 15 3
35 17 1
35 19 10
35 20 10
35 23 1
35 24 8
35 25 2
35 26 4
35 29 7
35 31 7
35 32 5
35 33 6
35 34 3
36 0 6
36 1 10
36 5 10
36 7 4
36 8 6
36 10 5
36 12 3
36 13 6
36 15 4
36 17 2
36 20 3
36 22 2
36 23 9
36 24 6
36 25 2
36 26 9
36 28 5
36 32 10
36 35 5
37 3 7
37 4 1
37 5 1
37 6 9
37 10 3
37 11 8
37 12 3
37 14 10
37 17 1
37 20 9
37 21 10
37 24 6
37 26 9
37 27 1
37 30 6
37 35 6
37 36 10
38 1 9
38 3 10
38 11 10
38 16 10
38 20 7
38 21 10
38 22 4
38 24 1
38 25 5
38 26 7
38 28 1
38 29 8
38 33 4
38 35 10
39 2 1
39 3 4
39 4 1
39 7 3
39 11 4
39 15 2
39 18 6
39 20 6
39 24 9
39 25 7
39 26 4
39 28 1
39 30 1
39 31 4
39 34 10
39 37 3
39 38 10
40 1 8
40 4 4
40 7 7
40 9 6
40 11 10
40 12 5
40 13 2
40 16 6
40 19 4
40 20 8
40 21 4
40 22 7
40 26 9
40 27 4
40 31 7
40 32 4
40 33 3
40 34 10
40 36 3
40 38 4
41 0 6
41 2 7
41 3 2
41 5 5
41 6 8
41 7 8
41 9 9
41 10 6
41 11 8
41 12 8
41 13 10
41 14 10
41 15 9
41 17 3
41 19 5
41 22 6
41 24 2
41 25 6
41 27 1
41 30 9
41 31 7
41 32 10
41 34 3
41 38 7
42 1 8
42 2 1
42 4 6
42 6 6
42 7 3
42 8 7
42 9 10
42 11 7
42 13 9
42 15 10
42 16 10
42 17 2
42 18 1
42 30 2
42 31 5
42 32 5
42 34 9
42 38 5
42 39 8
43 0 8
43 4 5
43 5 1
43 7 8
43 11 10
43 12 1
43 13 7
43 14 4
43 15 2
43 17 2
43 19 8
43 20 10
43 31 9
43 33 7
43 37 3
43 40 10
44 1 7
44 2 7
44 5 8
44 6 2
44 7 3
44 14 9
44 15 5
44 16 10
44 18 2
44 19 8
44 20 10
44 21 3
44 25 8
44 26 6
44 27 9
44 32 9
44 33 1
44 34 7
44 36 3
44 38 3
44 42 1
44 43 2
45 0 6
45 1 4
45 4 3
45 5 2
45 10 3
45 11 3
45 12 6
45 13 1
45 14 4
45 15 6
45 19 9
45 21 7
45 22 4
45 23 2
45 28 3
45 30 8
45 31 1
45 34 6
45 36 9
45 37 8
45 38 8
45 42 10
46 1 10
46 3 3
46 6 3
46 7 9
46 8 4
46 9 8
46 11 3
46 12 1
46 14 7
46 15 1
46 16 9
46 17 2
46 18 8
46 21 10
46 23 2
46 25 7
46 29 8
46 32 6
46 33 2
46 34 9
46 38 3
46 41 10
47 0 3
47 2 8
47 8 10
47 9 5
47 10 3
47 11 1
47 12 7
47 14 3
47 15 6
47 21 6
47 22 1
47 25 3
47 26 8
47 28 2
47 30 5
47 31 7
47 33 3
47 34 3
47 35 6
47 36 3
47 37 9
47 41 5
47 42 10
47 43 6
47 44 10
47 45 10
48 0 4
48 2 10
48 4 10
48 5 6
48 6 2
48 7 1
48 10 9
48 11 1
48 12 7
48 14 5
48 21 9
48 23 6
48 24 5
48 27 4
48 30 8
48 33 10
48 34 2
48 35 10
48 36 7
48 37 1
48 38 10
48 40 1
48 41 9
48 44 1
48 45 7
48 47 4
49 0 8
49 3 9
49 4 3
49 8 8
49 9 6
49 11 2
49 13 2
49 15 3
49 17 2
49 19 3
49 22 4
49 24 4
49 27 10
49 30 1
49 31 3
49 33 3
49 34 9
49 36 10
49 38 3
49 39 3
49 41 6
49 42 6
49 44 3
49 45 7
49 47 9
49 48 5
